
Gurobi 9.5.2 (mac64[arm]) logging started Tue Jan  3 20:33:37 2023

Set parameter LogFile to value "./ccga_results/2023-01-03 20-33-36-713/MSP_TimeStampConvert_gurobi_log.txt"

Gurobi 9.5.2 (mac64[arm]) logging started Tue Jan  3 20:33:37 2023

Set parameter LogFile to value "./ccga_results/2023-01-03 20-33-36-713/MSP_TimeStampConvert_gurobi_log.txt"
Set parameter TimeLimit to value 180
Gurobi Optimizer version 9.5.2 build v9.5.2rc0 (mac64[arm])
Thread count: 8 physical cores, 8 logical processors, using up to 8 threads
Optimize a model with 120 rows, 97 columns and 282 nonzeros
Model fingerprint: 0xa81ce8c1
Variable types: 25 continuous, 72 integer (72 binary)
Coefficient statistics:
  Matrix range     [1e+00, 1e+00]
  Objective range  [1e+00, 1e+00]
  Bounds range     [5e+01, 5e+01]
  RHS range        [1e+00, 1e+00]
Found heuristic solution: objective -0.0000000
Found heuristic solution: objective 50.0000000
Presolve removed 120 rows and 97 columns
Presolve time: 0.00s
Presolve: All rows and columns removed

Explored 0 nodes (0 simplex iterations) in 0.00 seconds (0.00 work units)
Thread count was 1 (of 8 available processors)

Solution count 2: 50 -0 

Optimal solution found (tolerance 1.00e-03)
Best objective 5.000000000000e+01, best bound 5.000000000000e+01, gap 0.0000%

User-callback calls 352, time in user-callback 0.00 sec
